p cnf 416 1121
-15 1 0
-15 -9 0
15 -1 9 0
-16 -8 0
-16 -15 0
16 8 15 0
-17 -7 0
-17 16 0
17 7 -16 0
-18 -6 0
-18 17 0
18 6 -17 0
-19 -5 0
-19 18 0
19 5 -18 0
-20 -4 0
-20 19 0
20 4 -19 0
-21 -3 0
-21 20 0
21 3 -20 0
-22 8 0
-22 15 0
22 -8 -15 0
-23 -16 0
-23 -22 0
23 16 22 0
-24 21 0
-24 23 0
24 -21 -23 0
-25 1 0
-25 -10 0
25 -1 10 0
-26 -8 0
-26 -25 0
26 8 25 0
-27 1 0
-27 21 0
27 -1 -21 0
-28 -9 0
-28 -27 0
28 9 27 0
-29 9 0
-29 27 0
29 -9 -27 0
-30 -28 0
-30 -29 0
30 28 29 0
-31 8 0
-31 25 0
31 -8 -25 0
-32 30 0
-32 -31 0
32 -30 31 0
-33 -26 0
-33 -32 0
33 26 32 0
-34 -7 0
-34 -33 0
34 7 33 0
-35 7 0
-35 33 0
35 -7 -33 0
-36 24 0
-36 -35 0
36 -24 35 0
-37 -34 0
-37 -36 0
37 34 36 0
-38 -6 0
-38 -37 0
38 6 37 0
-39 7 0
-39 -16 0
39 -7 16 0
-40 -17 0
-40 -39 0
40 17 39 0
-41 21 0
-41 40 0
41 -21 -40 0
-42 6 0
-42 37 0
42 -6 -37 0
-43 41 0
-43 -42 0
43 -41 42 0
-44 -38 0
-44 -43 0
44 38 43 0
-45 -5 0
-45 -44 0
45 5 44 0
-46 6 0
-46 -17 0
46 -6 17 0
-47 -18 0
-47 -46 0
47 18 46 0
-48 21 0
-48 47 0
48 -21 -47 0
-49 5 0
-49 44 0
49 -5 -44 0
-50 48 0
-50 -49 0
50 -48 49 0
-51 -45 0
-51 -50 0
51 45 50 0
-52 -4 0
-52 -51 0
52 4 51 0
-53 5 0
-53 -18 0
53 -5 18 0
-54 -19 0
-54 -53 0
54 19 53 0
-55 21 0
-55 54 0
55 -21 -54 0
-56 4 0
-56 51 0
56 -4 -51 0
-57 55 0
-57 -56 0
57 -55 56 0
-58 -52 0
-58 -57 0
58 52 57 0
-59 -3 0
-59 -58 0
59 3 58 0
-60 -34 0
-60 -35 0
60 34 35 0
-61 59 0
-61 60 0
61 -59 -60 0
-62 -24 0
-62 -61 0
62 24 61 0
-63 24 0
-63 61 0
63 -24 -61 0
-64 -62 0
-64 -63 0
64 62 63 0
-65 1 0
-65 -11 0
65 -1 11 0
-66 -8 0
-66 -65 0
66 8 65 0
-67 1 0
-67 59 0
67 -1 -59 0
-68 -10 0
-68 -67 0
68 10 67 0
-69 10 0
-69 67 0
69 -10 -67 0
-70 -68 0
-70 -69 0
70 68 69 0
-71 8 0
-71 65 0
71 -8 -65 0
-72 70 0
-72 -71 0
72 -70 71 0
-73 -66 0
-73 -72 0
73 66 72 0
-74 -7 0
-74 -73 0
74 7 73 0
-75 -26 0
-75 -31 0
75 26 31 0
-76 59 0
-76 75 0
76 -59 -75 0
-77 -30 0
-77 -76 0
77 30 76 0
-78 30 0
-78 76 0
78 -30 -76 0
-79 -77 0
-79 -78 0
79 77 78 0
-80 7 0
-80 73 0
80 -7 -73 0
-81 79 0
-81 -80 0
81 -79 80 0
-82 -74 0
-82 -81 0
82 74 81 0
-83 -6 0
-83 -82 0
83 6 82 0
-84 6 0
-84 82 0
84 -6 -82 0
-85 64 0
-85 -84 0
85 -64 84 0
-86 -83 0
-86 -85 0
86 83 85 0
-87 -5 0
-87 -86 0
87 5 86 0
-88 -38 0
-88 -42 0
88 38 42 0
-89 59 0
-89 88 0
89 -59 -88 0
-90 -41 0
-90 -89 0
90 41 89 0
-91 41 0
-91 89 0
91 -41 -89 0
-92 -90 0
-92 -91 0
92 90 91 0
-93 5 0
-93 86 0
93 -5 -86 0
-94 92 0
-94 -93 0
94 -92 93 0
-95 -87 0
-95 -94 0
95 87 94 0
-96 -4 0
-96 -95 0
96 4 95 0
-97 -45 0
-97 -49 0
97 45 49 0
-98 59 0
-98 97 0
98 -59 -97 0
-99 -48 0
-99 -98 0
99 48 98 0
-100 48 0
-100 98 0
100 -48 -98 0
-101 -99 0
-101 -100 0
101 99 100 0
-102 4 0
-102 95 0
102 -4 -95 0
-103 101 0
-103 -102 0
103 -101 102 0
-104 -96 0
-104 -103 0
104 96 103 0
-105 -3 0
-105 -104 0
105 3 104 0
-106 -52 0
-106 -56 0
106 52 56 0
-107 59 0
-107 106 0
107 -59 -106 0
-108 -55 0
-108 -107 0
108 55 107 0
-109 55 0
-109 107 0
109 -55 -107 0
-110 -108 0
-110 -109 0
110 108 109 0
-111 3 0
-111 104 0
111 -3 -104 0
-112 110 0
-112 -111 0
112 -110 111 0
-113 -105 0
-113 -112 0
113 105 112 0
-114 -83 0
-114 -84 0
114 83 84 0
-115 -113 0
-115 114 0
115 113 -114 0
-116 -64 0
-116 -115 0
116 64 115 0
-117 64 0
-117 115 0
117 -64 -115 0
-118 -116 0
-118 -117 0
118 116 117 0
-119 -105 0
-119 -111 0
119 105 111 0
-120 110 0
-120 -119 0
120 -110 119 0
-121 1 0
-121 -12 0
121 -1 12 0
-122 -8 0
-122 -121 0
122 8 121 0
-123 1 0
-123 -113 0
123 -1 113 0
-124 -11 0
-124 -123 0
124 11 123 0
-125 11 0
-125 123 0
125 -11 -123 0
-126 -124 0
-126 -125 0
126 124 125 0
-127 8 0
-127 121 0
127 -8 -121 0
-128 126 0
-128 -127 0
128 -126 127 0
-129 -122 0
-129 -128 0
129 122 128 0
-130 -7 0
-130 -129 0
130 7 129 0
-131 -66 0
-131 -71 0
131 66 71 0
-132 -113 0
-132 131 0
132 113 -131 0
-133 -70 0
-133 -132 0
133 70 132 0
-134 70 0
-134 132 0
134 -70 -132 0
-135 -133 0
-135 -134 0
135 133 134 0
-136 7 0
-136 129 0
136 -7 -129 0
-137 135 0
-137 -136 0
137 -135 136 0
-138 -130 0
-138 -137 0
138 130 137 0
-139 -6 0
-139 -138 0
139 6 138 0
-140 -74 0
-140 -80 0
140 74 80 0
-141 -113 0
-141 140 0
141 113 -140 0
-142 -79 0
-142 -141 0
142 79 141 0
-143 79 0
-143 141 0
143 -79 -141 0
-144 -142 0
-144 -143 0
144 142 143 0
-145 6 0
-145 138 0
145 -6 -138 0
-146 144 0
-146 -145 0
146 -144 145 0
-147 -139 0
-147 -146 0
147 139 146 0
-148 -5 0
-148 -147 0
148 5 147 0
-149 5 0
-149 147 0
149 -5 -147 0
-150 118 0
-150 -149 0
150 -118 149 0
-151 -148 0
-151 -150 0
151 148 150 0
-152 -4 0
-152 -151 0
152 4 151 0
-153 -87 0
-153 -93 0
153 87 93 0
-154 -113 0
-154 153 0
154 113 -153 0
-155 -92 0
-155 -154 0
155 92 154 0
-156 92 0
-156 154 0
156 -92 -154 0
-157 -155 0
-157 -156 0
157 155 156 0
-158 4 0
-158 151 0
158 -4 -151 0
-159 157 0
-159 -158 0
159 -157 158 0
-160 -152 0
-160 -159 0
160 152 159 0
-161 -3 0
-161 -160 0
161 3 160 0
-162 -96 0
-162 -102 0
162 96 102 0
-163 -113 0
-163 162 0
163 113 -162 0
-164 -101 0
-164 -163 0
164 101 163 0
-165 101 0
-165 163 0
165 -101 -163 0
-166 -164 0
-166 -165 0
166 164 165 0
-167 3 0
-167 160 0
167 -3 -160 0
-168 166 0
-168 -167 0
168 -166 167 0
-169 -161 0
-169 -168 0
169 161 168 0
-170 -120 0
-170 169 0
170 120 -169 0
-171 -148 0
-171 -149 0
171 148 149 0
-172 -170 0
-172 171 0
172 170 -171 0
-173 -118 0
-173 -172 0
173 118 172 0
-174 118 0
-174 172 0
174 -118 -172 0
-175 -173 0
-175 -174 0
175 173 174 0
-176 -161 0
-176 -167 0
176 161 167 0
-177 -170 0
-177 176 0
177 170 -176 0
-178 -166 0
-178 -177 0
178 166 177 0
-179 166 0
-179 177 0
179 -166 -177 0
-180 -178 0
-180 -179 0
180 178 179 0
-181 1 0
-181 -13 0
181 -1 13 0
-182 -8 0
-182 -181 0
182 8 181 0
-183 1 0
-183 -170 0
183 -1 170 0
-184 -12 0
-184 -183 0
184 12 183 0
-185 12 0
-185 183 0
185 -12 -183 0
-186 -184 0
-186 -185 0
186 184 185 0
-187 8 0
-187 181 0
187 -8 -181 0
-188 186 0
-188 -187 0
188 -186 187 0
-189 -182 0
-189 -188 0
189 182 188 0
-190 -7 0
-190 -189 0
190 7 189 0
-191 -122 0
-191 -127 0
191 122 127 0
-192 -170 0
-192 191 0
192 170 -191 0
-193 -126 0
-193 -192 0
193 126 192 0
-194 126 0
-194 192 0
194 -126 -192 0
-195 -193 0
-195 -194 0
195 193 194 0
-196 7 0
-196 189 0
196 -7 -189 0
-197 195 0
-197 -196 0
197 -195 196 0
-198 -190 0
-198 -197 0
198 190 197 0
-199 -6 0
-199 -198 0
199 6 198 0
-200 -130 0
-200 -136 0
200 130 136 0
-201 -170 0
-201 200 0
201 170 -200 0
-202 -135 0
-202 -201 0
202 135 201 0
-203 135 0
-203 201 0
203 -135 -201 0
-204 -202 0
-204 -203 0
204 202 203 0
-205 6 0
-205 198 0
205 -6 -198 0
-206 204 0
-206 -205 0
206 -204 205 0
-207 -199 0
-207 -206 0
207 199 206 0
-208 -5 0
-208 -207 0
208 5 207 0
-209 -139 0
-209 -145 0
209 139 145 0
-210 -170 0
-210 209 0
210 170 -209 0
-211 -144 0
-211 -210 0
211 144 210 0
-212 144 0
-212 210 0
212 -144 -210 0
-213 -211 0
-213 -212 0
213 211 212 0
-214 5 0
-214 207 0
214 -5 -207 0
-215 213 0
-215 -214 0
215 -213 214 0
-216 -208 0
-216 -215 0
216 208 215 0
-217 -4 0
-217 -216 0
217 4 216 0
-218 4 0
-218 216 0
218 -4 -216 0
-219 175 0
-219 -218 0
219 -175 218 0
-220 -217 0
-220 -219 0
220 217 219 0
-221 -3 0
-221 -220 0
221 3 220 0
-222 -152 0
-222 -158 0
222 152 158 0
-223 -170 0
-223 222 0
223 170 -222 0
-224 -157 0
-224 -223 0
224 157 223 0
-225 157 0
-225 223 0
225 -157 -223 0
-226 -224 0
-226 -225 0
226 224 225 0
-227 3 0
-227 220 0
227 -3 -220 0
-228 226 0
-228 -227 0
228 -226 227 0
-229 -221 0
-229 -228 0
229 221 228 0
-230 -180 0
-230 229 0
230 180 -229 0
-231 -217 0
-231 -218 0
231 217 218 0
-232 -230 0
-232 231 0
232 230 -231 0
-233 -175 0
-233 -232 0
233 175 232 0
-234 175 0
-234 232 0
234 -175 -232 0
-235 -233 0
-235 -234 0
235 233 234 0
-236 -221 0
-236 -227 0
236 221 227 0
-237 -230 0
-237 236 0
237 230 -236 0
-238 -226 0
-238 -237 0
238 226 237 0
-239 226 0
-239 237 0
239 -226 -237 0
-240 -238 0
-240 -239 0
240 238 239 0
-241 1 0
-241 -14 0
241 -1 14 0
-242 -8 0
-242 -241 0
242 8 241 0
-243 1 0
-243 -230 0
243 -1 230 0
-244 -13 0
-244 -243 0
244 13 243 0
-245 13 0
-245 243 0
245 -13 -243 0
-246 -244 0
-246 -245 0
246 244 245 0
-247 8 0
-247 241 0
247 -8 -241 0
-248 246 0
-248 -247 0
248 -246 247 0
-249 -242 0
-249 -248 0
249 242 248 0
-250 -7 0
-250 -249 0
250 7 249 0
-251 -182 0
-251 -187 0
251 182 187 0
-252 -230 0
-252 251 0
252 230 -251 0
-253 -186 0
-253 -252 0
253 186 252 0
-254 186 0
-254 252 0
254 -186 -252 0
-255 -253 0
-255 -254 0
255 253 254 0
-256 7 0
-256 249 0
256 -7 -249 0
-257 255 0
-257 -256 0
257 -255 256 0
-258 -250 0
-258 -257 0
258 250 257 0
-259 -6 0
-259 -258 0
259 6 258 0
-260 -190 0
-260 -196 0
260 190 196 0
-261 -230 0
-261 260 0
261 230 -260 0
-262 -195 0
-262 -261 0
262 195 261 0
-263 195 0
-263 261 0
263 -195 -261 0
-264 -262 0
-264 -263 0
264 262 263 0
-265 6 0
-265 258 0
265 -6 -258 0
-266 264 0
-266 -265 0
266 -264 265 0
-267 -259 0
-267 -266 0
267 259 266 0
-268 -5 0
-268 -267 0
268 5 267 0
-269 -199 0
-269 -205 0
269 199 205 0
-270 -230 0
-270 269 0
270 230 -269 0
-271 -204 0
-271 -270 0
271 204 270 0
-272 204 0
-272 270 0
272 -204 -270 0
-273 -271 0
-273 -272 0
273 271 272 0
-274 5 0
-274 267 0
274 -5 -267 0
-275 273 0
-275 -274 0
275 -273 274 0
-276 -268 0
-276 -275 0
276 268 275 0
-277 -4 0
-277 -276 0
277 4 276 0
-278 -208 0
-278 -214 0
278 208 214 0
-279 -230 0
-279 278 0
279 230 -278 0
-280 -213 0
-280 -279 0
280 213 279 0
-281 213 0
-281 279 0
281 -213 -279 0
-282 -280 0
-282 -281 0
282 280 281 0
-283 4 0
-283 276 0
283 -4 -276 0
-284 282 0
-284 -283 0
284 -282 283 0
-285 -277 0
-285 -284 0
285 277 284 0
-286 -3 0
-286 -285 0
286 3 285 0
-287 3 0
-287 285 0
287 -3 -285 0
-288 235 0
-288 -287 0
288 -235 287 0
-289 -286 0
-289 -288 0
289 286 288 0
-290 -240 0
-290 289 0
290 240 -289 0
-291 -286 0
-291 -287 0
291 286 287 0
-292 -290 0
-292 291 0
292 290 -291 0
-293 -235 0
-293 -292 0
293 235 292 0
-294 235 0
-294 292 0
294 -235 -292 0
-295 -293 0
-295 -294 0
295 293 294 0
-296 1 0
-296 -2 0
296 -1 2 0
-297 -8 0
-297 -296 0
297 8 296 0
-298 1 0
-298 -290 0
298 -1 290 0
-299 -14 0
-299 -298 0
299 14 298 0
-300 14 0
-300 298 0
300 -14 -298 0
-301 -299 0
-301 -300 0
301 299 300 0
-302 8 0
-302 296 0
302 -8 -296 0
-303 301 0
-303 -302 0
303 -301 302 0
-304 -297 0
-304 -303 0
304 297 303 0
-305 -7 0
-305 -304 0
305 7 304 0
-306 -242 0
-306 -247 0
306 242 247 0
-307 -290 0
-307 306 0
307 290 -306 0
-308 -246 0
-308 -307 0
308 246 307 0
-309 246 0
-309 307 0
309 -246 -307 0
-310 -308 0
-310 -309 0
310 308 309 0
-311 7 0
-311 304 0
311 -7 -304 0
-312 310 0
-312 -311 0
312 -310 311 0
-313 -305 0
-313 -312 0
313 305 312 0
-314 -6 0
-314 -313 0
314 6 313 0
-315 -250 0
-315 -256 0
315 250 256 0
-316 -290 0
-316 315 0
316 290 -315 0
-317 -255 0
-317 -316 0
317 255 316 0
-318 255 0
-318 316 0
318 -255 -316 0
-319 -317 0
-319 -318 0
319 317 318 0
-320 6 0
-320 313 0
320 -6 -313 0
-321 319 0
-321 -320 0
321 -319 320 0
-322 -314 0
-322 -321 0
322 314 321 0
-323 -5 0
-323 -322 0
323 5 322 0
-324 -259 0
-324 -265 0
324 259 265 0
-325 -290 0
-325 324 0
325 290 -324 0
-326 -264 0
-326 -325 0
326 264 325 0
-327 264 0
-327 325 0
327 -264 -325 0
-328 -326 0
-328 -327 0
328 326 327 0
-329 5 0
-329 322 0
329 -5 -322 0
-330 328 0
-330 -329 0
330 -328 329 0
-331 -323 0
-331 -330 0
331 323 330 0
-332 -4 0
-332 -331 0
332 4 331 0
-333 -268 0
-333 -274 0
333 268 274 0
-334 -290 0
-334 333 0
334 290 -333 0
-335 -273 0
-335 -334 0
335 273 334 0
-336 273 0
-336 334 0
336 -273 -334 0
-337 -335 0
-337 -336 0
337 335 336 0
-338 4 0
-338 331 0
338 -4 -331 0
-339 337 0
-339 -338 0
339 -337 338 0
-340 -332 0
-340 -339 0
340 332 339 0
-341 -3 0
-341 -340 0
341 3 340 0
-342 -277 0
-342 -283 0
342 277 283 0
-343 -290 0
-343 342 0
343 290 -342 0
-344 -282 0
-344 -343 0
344 282 343 0
-345 282 0
-345 343 0
345 -282 -343 0
-346 -344 0
-346 -345 0
346 344 345 0
-347 3 0
-347 340 0
347 -3 -340 0
-348 346 0
-348 -347 0
348 -346 347 0
-349 -341 0
-349 -348 0
349 341 348 0
-350 -295 0
-350 349 0
350 295 -349 0
-351 1 0
-351 -350 0
351 -1 350 0
352 2 351 0
353 -2 -351 0
-354 -352 0
-354 -353 0
355 -1 354 0
-356 -297 0
-356 -302 0
356 297 302 0
-357 -350 0
-357 356 0
357 350 -356 0
358 301 357 0
359 -301 -357 0
-360 -358 0
-360 -359 0
-361 -8 0
-361 360 0
362 -355 361 0
363 -8 360 0
-364 -362 0
-364 -363 0
-365 -305 0
-365 -311 0
365 305 311 0
-366 -350 0
-366 365 0
366 350 -365 0
367 310 366 0
368 -310 -366 0
-369 -367 0
-369 -368 0
-370 -7 0
-370 369 0
371 364 370 0
372 -7 369 0
-373 -371 0
-373 -372 0
-374 -314 0
-374 -320 0
374 314 320 0
-375 -350 0
-375 374 0
375 350 -374 0
376 319 375 0
377 -319 -375 0
-378 -376 0
-378 -377 0
-379 -6 0
-379 378 0
380 373 379 0
381 -6 378 0
-382 -380 0
-382 -381 0
-383 -323 0
-383 -329 0
383 323 329 0
-384 -350 0
-384 383 0
384 350 -383 0
385 328 384 0
386 -328 -384 0
-387 -385 0
-387 -386 0
-388 -5 0
-388 387 0
389 382 388 0
390 -5 387 0
-391 -389 0
-391 -390 0
-392 -332 0
-392 -338 0
392 332 338 0
-393 -350 0
-393 392 0
393 350 -392 0
394 337 393 0
395 -337 -393 0
-396 -394 0
-396 -395 0
-397 -4 0
-397 396 0
398 391 397 0
399 -4 396 0
-400 -398 0
-400 -399 0
-401 -341 0
-401 -347 0
401 341 347 0
-402 -350 0
-402 401 0
402 350 -401 0
403 346 402 0
404 -346 -402 0
-405 -403 0
-405 -404 0
-406 -3 0
-406 405 0
407 400 406 0
408 -3 405 0
-409 -407 0
-409 -408 0
410 3 4 0
411 5 -410 0
412 6 -411 0
413 7 -412 0
414 8 -413 0
415 1 -414 0
-416 409 0
-416 -415 0
416 0
